experiment/data/lkh-res/Vrp-Set-P-n50/Vrp-Set-P-n50-lkh/1.lkh1.tour
NAME : 1.55984.tour
COMMENT : Length = 55984
COMMENT : Found by LKH-3 [Keld Helsgaun] Tue Apr  9 02:37:31 2024
TYPE : TOUR
DIMENSION : 56
TOUR_SECTION
1
5
35
47
55
28
14
16
21
38
37
6
30
46
54
3
29
22
48
49
31
51
18
50
25
19
26
32
11
27
56
13
40
10
33
45
4
41
52
17
24
44
42
43
23
2
34
7
53
9
36
20
15
12
39
8
-1
EOF
